(set-logic ALL)
(set-option :fmf-bound true)
(set-option :produce-models true)
(declare-sort Object 0)

(declare-fun var3 (Bool) Bool)
(declare-fun var41 (Bool) Bool)
(declare-fun var6 (Bool) Bool)
(declare-fun var40 (Bool) Bool)
(declare-fun var9 (Bool) Bool)
(declare-fun var34 (Bool) Bool)
(declare-fun var5 (Bool) Bool)
(declare-fun var48 (Bool) Bool)
(declare-fun var43 (Bool) Bool)
(declare-fun var11 (Bool) Bool)
(declare-fun var50 (Bool) Bool)
(declare-fun var25 (Bool) Bool)
(declare-fun var33 (Bool) Bool)
(declare-fun var17 (Bool) Bool)
(declare-fun var20 (Bool) Bool)
(declare-fun var4 (Bool) Bool)
(declare-fun var44 (Bool) Bool)
(declare-fun var2 (Bool) Bool)
(declare-fun var30 (Bool) Bool)
(declare-fun var29 (Bool) Bool)
(declare-fun var49 (Bool) Bool)
(declare-fun var36 (Bool) Bool)
(declare-fun var18 (Bool) Bool)
(declare-fun var16 (Bool) Bool)
(declare-fun var7 (Bool) Bool)
(declare-fun var22 (Bool) Bool)
(declare-fun var19 (Bool) Bool)
(declare-fun var26 (Bool) Bool)
(declare-fun var23 (Bool) Bool)
(declare-fun var24 (Bool) Bool)
(declare-fun var27 (Bool) Bool)
(declare-fun var47 (Bool) Bool)
(declare-fun var10 (Bool) Bool)
(declare-fun var37 (Bool) Bool)
(declare-fun var35 (Bool) Bool)
(declare-fun var45 (Bool) Bool)
(declare-fun var32 (Bool) Bool)
(declare-fun var12 (Bool) Bool)
(declare-fun var13 (Bool) Bool)
(declare-fun var38 (Bool) Bool)
(declare-fun var28 (Bool) Bool)
(declare-fun var14 (Bool) Bool)
(declare-fun var42 (Bool) Bool)
(declare-fun var39 (Bool) Bool)
(declare-fun var46 (Bool) Bool)
(declare-fun var31 (Bool) Bool)
(declare-fun var15 (Bool) Bool)
(declare-fun var8 (Bool) Bool)
(declare-fun var21 (Bool) Bool)
(declare-fun var1 (Bool) Bool)
(declare-fun GTE (Bool Bool) Bool)
(define-fun implies ((p Bool)(q Bool)) Bool (or (not p) q))

(assert (forall ((x Bool)) (not(or (var3 x) (not(var41 x))))))
(assert (forall ((x Bool)) (not(or (var6 x) (not(var40 x))))))
(assert (forall ((x Bool)) (not(or (var9 x) (not(var34 x))))))
(assert (forall ((x Bool)) (not(or (not(var5 x)) (not(var9 x))))))
(assert (forall ((x Bool)) (not(or (var5 x) (var48 x)))))
(assert (forall ((x Bool)) (not(or (not(var43 x)) (var11 x)))))
(assert (forall ((x Bool)) (not(or (var34 x) (var6 x)))))
(assert (forall ((x Bool)) (not(or (var50 x) (var25 x)))))
(assert (forall ((x Bool)) (not(or (var33 x) (var34 x)))))
(assert (forall ((x Bool)) (not(or (var17 x) (var20 x)))))
(assert (forall ((x Bool)) (not(or (var4 x) (not(var25 x))))))
(assert (forall ((x Bool))  (exists ((x1 Bool)) (and(GTE x x1)  (implies (var44 x1) (not(var17 x)))))))
(assert (forall ((x Bool))  (exists ((x1 Bool)) (and(GTE x x1)  (implies (not(var2 x1)) (not(var6 x)))))))
(assert (forall ((x Bool))  (exists ((x1 Bool)) (and(GTE x x1)  (implies (not(var30 x1)) (not(var29 x)))))))
(assert (forall ((x Bool))  (exists ((x1 Bool)) (and(GTE x x1)  (implies (var49 x1) (var20 x))))))
(assert (forall ((x Bool))  (exists ((x1 Bool)) (and(GTE x x1)  (implies (not(var36 x1)) (var18 x))))))
(assert (forall ((x Bool))  (exists ((x1 Bool)) (and(GTE x x1)  (implies (var25 x1) (var16 x))))))
(assert (forall ((x Bool)) (not(or (not(var30 x)) (not(var7 x)) (var34 x)))))
(assert (forall ((x Bool)) (not(or (var20 x) (var48 x) (not(var22 x))))))
(assert (forall ((x Bool)) (not(or (not(var19 x)) (not(var5 x)) (not(var2 x))))))
(assert (forall ((x Bool)) (not(or (var26 x) (var41 x) (var44 x)))))
(assert (forall ((x Bool)) (not(or (var23 x) (var17 x) (var40 x)))))
(assert (forall ((x Bool)) (not(or (not(var23 x)) (not(var24 x)) (not(var22 x))))))
(assert (forall ((x Bool)) (not(or (var27 x) (var34 x) (not(var5 x))))))
(assert (forall ((x Bool)) (not(or (var23 x) (not(var47 x)) (var48 x)))))
(assert (forall ((x Bool)) (not(or (not(var9 x)) (not(var10 x)) (not(var5 x))))))
(assert (forall ((x Bool)) (not(or (var19 x) (not(var37 x)) (not(var41 x))))))
(assert (forall ((x Bool)) (not(or (not(var50 x)) (not(var47 x)) (not(var35 x))))))
(assert (forall ((x Bool))  (exists ((x1 Bool)) (and(GTE x x1)  (implies (or (not(var45 x1)) (var23 x1)) (not(var40 x)))))))
(assert (forall ((x Bool))  (exists ((x1 Bool)) (and(GTE x x1)  (implies (not(var36 x1)) (or (var9 x) (not(var20 x))))))))
(assert (forall ((x Bool))  (exists ((x1 Bool)) (and(GTE x x1)  (implies (var40 x1) (or (not(var32 x)) (var48 x)))))))
(assert (forall ((x Bool))  (exists ((x1 Bool)) (and(GTE x x1)  (implies (not(var7 x1)) (or (not(var12 x)) (not(var23 x))))))))
(assert (forall ((x Bool))  (exists ((x1 Bool)) (and(GTE x x1)  (implies (var13 x1) (or (var26 x) (not(var38 x))))))))
(assert (forall ((x Bool))  (exists ((x1 Bool)) (and(GTE x x1)  (implies (or (var28 x1) (not(var44 x1))) (var40 x))))))
(assert (forall ((x Bool)) (not(or (var14 x) (not(var50 x)) (not(var32 x)) (var6 x)))))
(assert (forall ((x Bool)) (not(or (var11 x) (not(var42 x)) (var49 x) (not(var43 x))))))
(assert (forall ((x Bool)) (not(or (not(var40 x)) (var17 x) (var4 x) (var20 x)))))
(assert (forall ((x Bool)) (not(or (not(var48 x)) (var6 x) (not(var34 x)) (var20 x)))))
(assert (forall ((x Bool)) (not(or (not(var5 x)) (var42 x) (not(var25 x)) (var20 x)))))
(assert (forall ((x Bool)) (not(or (var39 x) (not(var33 x)) (not(var32 x)) (var41 x)))))
(assert (forall ((x Bool)) (not(or (var24 x) (var46 x) (var35 x) (not(var31 x))))))
(assert (forall ((x Bool)) (not(or (var37 x) (var9 x) (not(var38 x)) (not(var29 x))))))
(assert (forall ((x Bool)) (not(or (var12 x) (not(var20 x)) (var42 x) (not(var18 x))))))
(assert (forall ((x Bool)) (not(or (var11 x) (not(var40 x)) (not(var10 x)) (not(var50 x))))))
(assert (forall ((x Bool)) (not(or (not(var4 x)) (not(var3 x)) (not(var26 x)) (var23 x)))))
(assert (forall ((x Bool))  (exists ((x1 Bool)) (and(GTE x x1)  (implies (not(var19 x1)) (or (var49 x) (not(var4 x)) (not(var15 x))))))))
(assert (forall ((x Bool))  (exists ((x1 Bool)) (and(GTE x x1)  (implies (or (var44 x1) (not(var45 x1)) (not(var28 x1))) (not(var12 x)))))))
(assert (forall ((x Bool))  (exists ((x1 Bool)) (and(GTE x x1)  (implies (var19 x1) (or (not(var11 x)) (not(var35 x)) (not(var42 x))))))))
(assert (forall ((x Bool))  (exists ((x1 Bool)) (and(GTE x x1)  (implies (or (var19 x1) (var41 x1)) (or (not(var14 x)) (not(var6 x))))))))
(assert (forall ((x Bool))  (exists ((x1 Bool)) (and(GTE x x1)  (implies (or (not(var7 x1)) (not(var5 x1)) (var20 x1)) (var31 x))))))
(assert (forall ((x Bool))  (exists ((x1 Bool)) (and(GTE x x1)  (implies (or (not(var27 x1)) (not(var42 x1))) (or (var10 x) (var34 x)))))))
(assert (forall ((x Bool)) (not(or (var50 x) (var36 x) (not(var32 x)) (not(var29 x)) (var5 x) (var18 x)))))
(assert (forall ((x Bool)) (not(or (not(var31 x)) (var34 x) (not(var30 x)) (var9 x) (var47 x) (var13 x)))))
(assert (forall ((x Bool)) (not(or (not(var46 x)) (var45 x) (var31 x) (not(var25 x)) (not(var37 x)) (var22 x)))))
(assert (forall ((x Bool)) (not(or (var32 x) (not(var30 x)) (not(var11 x)) (not(var41 x)) (not(var50 x)) (var31 x)))))
(assert (forall ((x Bool)) (not(or (not(var12 x)) (var44 x) (not(var29 x)) (not(var8 x)) (var13 x) (var21 x)))))
(assert (forall ((x Bool)) (not(or (var46 x) (not(var13 x)) (var5 x) (not(var2 x)) (not(var38 x)) (not(var43 x))))))
(assert (forall ((x Bool)) (not(or (var32 x) (var18 x) (not(var26 x)) (var4 x) (not(var2 x)) (var17 x)))))
(assert (forall ((x Bool)) (not(or (var24 x) (var44 x) (not(var37 x)) (var5 x) (not(var6 x)) (not(var39 x))))))
(assert (forall ((x Bool)) (not(or (var28 x) (var22 x) (var15 x) (not(var37 x)) (not(var11 x)) (var2 x)))))
(assert (forall ((x Bool)) (not(or (var31 x) (var35 x) (not(var44 x)) (not(var5 x)) (var45 x) (var13 x)))))
(assert (forall ((x Bool)) (not(or (not(var6 x)) (not(var35 x)) (var37 x) (not(var43 x)) (var5 x) (var30 x)))))
(assert (forall ((x Bool))  (exists ((x1 Bool)) (and(GTE x x1)  (implies (or (var9 x1) (var2 x1)) (or (not(var37 x)) (var31 x) (var7 x) (var39 x)))))))
(assert (forall ((x Bool))  (exists ((x1 Bool)) (and(GTE x x1)  (implies (or (not(var4 x1)) (not(var29 x1)) (var26 x1) (var34 x1)) (or (var40 x) (not(var14 x))))))))
(assert (forall ((x Bool))  (exists ((x1 Bool)) (and(GTE x x1)  (implies (or (var34 x1) (not(var20 x1)) (var22 x1) (not(var16 x1))) (or (var8 x) (not(var50 x))))))))
(assert (forall ((x Bool))  (exists ((x1 Bool)) (and(GTE x x1)  (implies (or (not(var28 x1)) (var17 x1)) (or (var37 x) (var23 x) (var29 x) (not(var1 x))))))))
(assert (forall ((x Bool))  (exists ((x1 Bool)) (and(GTE x x1)  (implies (var47 x1) (or (var34 x) (not(var22 x)) (var9 x) (var49 x) (var13 x)))))))
(assert (forall ((x Bool))  (exists ((x1 Bool)) (and(GTE x x1)  (implies (or (not(var38 x1)) (not(var37 x1))) (or (not(var4 x)) (var5 x) (not(var22 x)) (not(var45 x))))))))
(assert (forall ((x Bool)) (not(or (var9 x) (not(var14 x)) (not(var21 x)) (var8 x) (not(var17 x)) (var23 x) (not(var33 x)) (not(var19 x))))))
(assert (forall ((x Bool)) (not(or (not(var1 x)) (var32 x) (var20 x) (var17 x) (var26 x) (not(var6 x)) (var40 x) (not(var2 x))))))
(assert (forall ((x Bool)) (not(or (not(var46 x)) (var6 x) (var2 x) (var8 x) (var14 x) (not(var16 x)) (not(var37 x)) (not(var10 x))))))
(assert (forall ((x Bool)) (not(or (var43 x) (var35 x) (var37 x) (var8 x) (not(var4 x)) (var50 x) (not(var25 x)) (not(var9 x))))))
(assert (forall ((x Bool)) (not(or (var27 x) (not(var16 x)) (not(var31 x)) (not(var9 x)) (var24 x) (var18 x) (var12 x) (not(var10 x))))))
(assert (forall ((x Bool)) (not(or (not(var15 x)) (not(var39 x)) (not(var22 x)) (not(var36 x)) (not(var37 x)) (var16 x) (var14 x) (not(var13 x))))))
(assert (forall ((x Bool)) (not(or (var14 x) (not(var21 x)) (var40 x) (not(var42 x)) (not(var31 x)) (var19 x) (not(var3 x)) (not(var22 x))))))
(assert (forall ((x Bool)) (not(or (var45 x) (var9 x) (not(var11 x)) (not(var20 x)) (not(var49 x)) (not(var38 x)) (not(var44 x)) (var12 x)))))
(assert (forall ((x Bool)) (not(or (not(var42 x)) (var44 x) (not(var45 x)) (var48 x) (var38 x) (var18 x) (not(var26 x)) (var13 x)))))
(assert (forall ((x Bool)) (not(or (var36 x) (var40 x) (var32 x) (not(var22 x)) (not(var45 x)) (not(var20 x)) (var47 x) (not(var37 x))))))
(assert (forall ((x Bool)) (not(or (not(var20 x)) (not(var10 x)) (not(var25 x)) (var9 x) (not(var17 x)) (var27 x) (var12 x) (not(var1 x))))))
(assert (forall ((x Bool))  (exists ((x1 Bool)) (and(GTE x x1)  (implies (var9 x1) (or (not(var11 x)) (var18 x) (var30 x) (var46 x) (var48 x) (var38 x) (var34 x)))))))
(assert (forall ((x Bool))  (exists ((x1 Bool)) (and(GTE x x1)  (implies (or (var5 x1) (var23 x1) (var4 x1) (not(var28 x1))) (or (not(var6 x)) (var43 x) (var21 x) (not(var24 x))))))))
(assert (forall ((x Bool))  (exists ((x1 Bool)) (and(GTE x x1)  (implies (or (not(var22 x1)) (not(var1 x1))) (or (not(var18 x)) (var10 x) (not(var40 x)) (var43 x) (not(var14 x)) (not(var2 x))))))))
(assert (forall ((x Bool))  (exists ((x1 Bool)) (and(GTE x x1)  (implies (or (not(var24 x1)) (not(var45 x1)) (var48 x1)) (or (not(var29 x)) (var36 x) (not(var11 x)) (var27 x) (var1 x)))))))
(assert (forall ((x Bool))  (exists ((x1 Bool)) (and(GTE x x1)  (implies (or (var3 x1) (not(var38 x1)) (not(var46 x1)) (var16 x1) (not(var11 x1)) (var9 x1)) (or (not(var31 x)) (not(var17 x))))))))
(assert (forall ((x Bool))  (exists ((x1 Bool)) (and(GTE x x1)  (implies (or (var26 x1) (not(var44 x1)) (not(var32 x1)) (not(var7 x1)) (not(var25 x1)) (var3 x1)) (or (not(var14 x)) (not(var6 x))))))))
(assert (forall ((x Bool)) (not(or (var31 x) (var36 x) (not(var22 x)) (var35 x) (var11 x) (not(var6 x)) (var45 x) (var26 x) (var32 x) (var14 x)))))
(assert (forall ((x Bool)) (not(or (var21 x) (not(var35 x)) (not(var38 x)) (not(var50 x)) (not(var7 x)) (not(var39 x)) (not(var5 x)) (var19 x) (not(var13 x)) (not(var29 x))))))
(assert (forall ((x Bool)) (not(or (not(var50 x)) (not(var47 x)) (not(var30 x)) (var31 x) (var12 x) (var40 x) (not(var24 x)) (not(var13 x)) (var11 x) (var4 x)))))
(assert (forall ((x Bool)) (not(or (var22 x) (not(var7 x)) (var43 x) (not(var10 x)) (not(var21 x)) (var47 x) (not(var49 x)) (not(var34 x)) (not(var6 x)) (var45 x)))))
(assert (forall ((x Bool)) (not(or (not(var11 x)) (not(var24 x)) (not(var17 x)) (not(var8 x)) (var36 x) (var4 x) (not(var37 x)) (var30 x) (var10 x) (var27 x)))))
(assert (forall ((x Bool)) (not(or (var40 x) (var1 x) (var22 x) (not(var23 x)) (not(var2 x)) (var24 x) (not(var19 x)) (not(var35 x)) (var9 x) (not(var29 x))))))
(assert (forall ((x Bool)) (not(or (not(var44 x)) (var22 x) (not(var7 x)) (var50 x) (not(var43 x)) (var4 x) (not(var17 x)) (var41 x) (var5 x) (var21 x)))))
(assert (forall ((x Bool)) (not(or (not(var22 x)) (not(var46 x)) (var30 x) (var19 x) (var38 x) (not(var7 x)) (not(var26 x)) (var44 x) (not(var32 x)) (var8 x)))))
(assert (forall ((x Bool)) (not(or (not(var43 x)) (not(var8 x)) (not(var25 x)) (var28 x) (var26 x) (var20 x) (not(var1 x)) (not(var35 x)) (var10 x) (var39 x)))))
(assert (forall ((x Bool)) (not(or (var11 x) (var29 x) (not(var25 x)) (var7 x) (not(var22 x)) (var38 x) (var40 x) (var2 x) (var13 x) (var32 x)))))
(assert (forall ((x Bool)) (not(or (var50 x) (var41 x) (var45 x) (not(var31 x)) (var23 x) (not(var36 x)) (var17 x) (var42 x) (var12 x) (var40 x)))))
(assert (forall ((x Bool))  (exists ((x1 Bool)) (and(GTE x x1)  (implies (or (var35 x1) (var36 x1) (not(var47 x1)) (not(var20 x1)) (var41 x1) (var19 x1) (not(var40 x1))) (or (not(var21 x)) (var32 x) (var17 x)))))))
(assert (forall ((x Bool))  (exists ((x1 Bool)) (and(GTE x x1)  (implies (or (not(var12 x1)) (not(var7 x1)) (var37 x1) (not(var2 x1)) (not(var9 x1)) (var48 x1) (var22 x1) (var11 x1)) (or (var43 x) (not(var4 x))))))))
(assert (forall ((x Bool))  (exists ((x1 Bool)) (and(GTE x x1)  (implies (var16 x1) (or (var8 x) (not(var22 x)) (not(var43 x)) (not(var31 x)) (var1 x) (not(var7 x)) (var3 x) (var34 x) (not(var32 x))))))))
(assert (forall ((x Bool))  (exists ((x1 Bool)) (and(GTE x x1)  (implies (not(var27 x1)) (or (var45 x) (not(var41 x)) (var4 x) (not(var21 x)) (not(var46 x)) (var16 x) (var12 x) (not(var23 x)) (var48 x)))))))
(check-sat)
(get-model)
